c File: flat50_3_0.col
c
c SOURCE: Joseph Culberson (joe@cs.ualberta.ca)
c DESCRIPTION: Quasi-random coloring problem
c              generated with flatness = 0
c                             probability = 0.139
c                             known coloring = 3
c                             random seed = 1816
c              Creation Date:  Tue Jun  9 12:18:38 1998
c Maximum degree = 8 Minimum degree = 1
c p edge 50 115
c cnf created by edge2cnf
p cnf 150 545
-1 -2 0
-1 -3 0
-2 -3 0
1 2 3 0
-4 -5 0
-4 -6 0
-5 -6 0
4 5 6 0
-7 -8 0
-7 -9 0
-8 -9 0
7 8 9 0
-10 -11 0
-10 -12 0
-11 -12 0
10 11 12 0
-13 -14 0
-13 -15 0
-14 -15 0
13 14 15 0
-16 -17 0
-16 -18 0
-17 -18 0
16 17 18 0
-19 -20 0
-19 -21 0
-20 -21 0
19 20 21 0
-22 -23 0
-22 -24 0
-23 -24 0
22 23 24 0
-25 -26 0
-25 -27 0
-26 -27 0
25 26 27 0
-28 -29 0
-28 -30 0
-29 -30 0
28 29 30 0
-31 -32 0
-31 -33 0
-32 -33 0
31 32 33 0
-34 -35 0
-34 -36 0
-35 -36 0
34 35 36 0
-37 -38 0
-37 -39 0
-38 -39 0
37 38 39 0
-40 -41 0
-40 -42 0
-41 -42 0
40 41 42 0
-43 -44 0
-43 -45 0
-44 -45 0
43 44 45 0
-46 -47 0
-46 -48 0
-47 -48 0
46 47 48 0
-49 -50 0
-49 -51 0
-50 -51 0
49 50 51 0
-52 -53 0
-52 -54 0
-53 -54 0
52 53 54 0
-55 -56 0
-55 -57 0
-56 -57 0
55 56 57 0
-58 -59 0
-58 -60 0
-59 -60 0
58 59 60 0
-61 -62 0
-61 -63 0
-62 -63 0
61 62 63 0
-64 -65 0
-64 -66 0
-65 -66 0
64 65 66 0
-67 -68 0
-67 -69 0
-68 -69 0
67 68 69 0
-70 -71 0
-70 -72 0
-71 -72 0
70 71 72 0
-73 -74 0
-73 -75 0
-74 -75 0
73 74 75 0
-76 -77 0
-76 -78 0
-77 -78 0
76 77 78 0
-79 -80 0
-79 -81 0
-80 -81 0
79 80 81 0
-82 -83 0
-82 -84 0
-83 -84 0
82 83 84 0
-85 -86 0
-85 -87 0
-86 -87 0
85 86 87 0
-88 -89 0
-88 -90 0
-89 -90 0
88 89 90 0
-91 -92 0
-91 -93 0
-92 -93 0
91 92 93 0
-94 -95 0
-94 -96 0
-95 -96 0
94 95 96 0
-97 -98 0
-97 -99 0
-98 -99 0
97 98 99 0
-100 -101 0
-100 -102 0
-101 -102 0
100 101 102 0
-103 -104 0
-103 -105 0
-104 -105 0
103 104 105 0
-106 -107 0
-106 -108 0
-107 -108 0
106 107 108 0
-109 -110 0
-109 -111 0
-110 -111 0
109 110 111 0
-112 -113 0
-112 -114 0
-113 -114 0
112 113 114 0
-115 -116 0
-115 -117 0
-116 -117 0
115 116 117 0
-118 -119 0
-118 -120 0
-119 -120 0
118 119 120 0
-121 -122 0
-121 -123 0
-122 -123 0
121 122 123 0
-124 -125 0
-124 -126 0
-125 -126 0
124 125 126 0
-127 -128 0
-127 -129 0
-128 -129 0
127 128 129 0
-130 -131 0
-130 -132 0
-131 -132 0
130 131 132 0
-133 -134 0
-133 -135 0
-134 -135 0
133 134 135 0
-136 -137 0
-136 -138 0
-137 -138 0
136 137 138 0
-139 -140 0
-139 -141 0
-140 -141 0
139 140 141 0
-142 -143 0
-142 -144 0
-143 -144 0
142 143 144 0
-145 -146 0
-145 -147 0
-146 -147 0
145 146 147 0
-148 -149 0
-148 -150 0
-149 -150 0
148 149 150 0
-52 -1 0
-53 -2 0
-54 -3 0
-73 -1 0
-74 -2 0
-75 -3 0
-106 -1 0
-107 -2 0
-108 -3 0
-112 -1 0
-113 -2 0
-114 -3 0
-118 -1 0
-119 -2 0
-120 -3 0
-148 -1 0
-149 -2 0
-150 -3 0
-82 -4 0
-83 -5 0
-84 -6 0
-85 -4 0
-86 -5 0
-87 -6 0
-94 -4 0
-95 -5 0
-96 -6 0
-97 -4 0
-98 -5 0
-99 -6 0
-148 -4 0
-149 -5 0
-150 -6 0
-58 -7 0
-59 -8 0
-60 -9 0
-82 -7 0
-83 -8 0
-84 -9 0
-64 -10 0
-65 -11 0
-66 -12 0
-79 -13 0
-80 -14 0
-81 -15 0
-97 -13 0
-98 -14 0
-99 -15 0
-127 -13 0
-128 -14 0
-129 -15 0
-130 -13 0
-131 -14 0
-132 -15 0
-139 -13 0
-140 -14 0
-141 -15 0
-73 -16 0
-74 -17 0
-75 -18 0
-82 -16 0
-83 -17 0
-84 -18 0
-100 -16 0
-101 -17 0
-102 -18 0
-106 -16 0
-107 -17 0
-108 -18 0
-127 -16 0
-128 -17 0
-129 -18 0
-142 -16 0
-143 -17 0
-144 -18 0
-52 -19 0
-53 -20 0
-54 -21 0
-61 -19 0
-62 -20 0
-63 -21 0
-79 -19 0
-80 -20 0
-81 -21 0
-82 -19 0
-83 -20 0
-84 -21 0
-118 -19 0
-119 -20 0
-120 -21 0
-133 -19 0
-134 -20 0
-135 -21 0
-85 -22 0
-86 -23 0
-87 -24 0
-91 -22 0
-92 -23 0
-93 -24 0
-136 -22 0
-137 -23 0
-138 -24 0
-139 -22 0
-140 -23 0
-141 -24 0
-145 -22 0
-146 -23 0
-147 -24 0
-67 -25 0
-68 -26 0
-69 -27 0
-76 -25 0
-77 -26 0
-78 -27 0
-91 -25 0
-92 -26 0
-93 -27 0
-112 -25 0
-113 -26 0
-114 -27 0
-118 -25 0
-119 -26 0
-120 -27 0
-103 -28 0
-104 -29 0
-105 -30 0
-109 -28 0
-110 -29 0
-111 -30 0
-139 -28 0
-140 -29 0
-141 -30 0
-55 -31 0
-56 -32 0
-57 -33 0
-58 -31 0
-59 -32 0
-60 -33 0
-76 -31 0
-77 -32 0
-78 -33 0
-85 -31 0
-86 -32 0
-87 -33 0
-121 -31 0
-122 -32 0
-123 -33 0
-124 -31 0
-125 -32 0
-126 -33 0
-148 -31 0
-149 -32 0
-150 -33 0
-70 -34 0
-71 -35 0
-72 -36 0
-106 -34 0
-107 -35 0
-108 -36 0
-136 -34 0
-137 -35 0
-138 -36 0
-142 -34 0
-143 -35 0
-144 -36 0
-145 -34 0
-146 -35 0
-147 -36 0
-55 -37 0
-56 -38 0
-57 -39 0
-121 -37 0
-122 -38 0
-123 -39 0
-133 -37 0
-134 -38 0
-135 -39 0
-94 -40 0
-95 -41 0
-96 -42 0
-118 -40 0
-119 -41 0
-120 -42 0
-52 -43 0
-53 -44 0
-54 -45 0
-61 -43 0
-62 -44 0
-63 -45 0
-67 -43 0
-68 -44 0
-69 -45 0
-100 -43 0
-101 -44 0
-102 -45 0
-127 -43 0
-128 -44 0
-129 -45 0
-133 -43 0
-134 -44 0
-135 -45 0
-139 -43 0
-140 -44 0
-141 -45 0
-148 -43 0
-149 -44 0
-150 -45 0
-52 -46 0
-53 -47 0
-54 -48 0
-64 -46 0
-65 -47 0
-66 -48 0
-130 -46 0
-131 -47 0
-132 -48 0
-145 -46 0
-146 -47 0
-147 -48 0
-85 -49 0
-86 -50 0
-87 -51 0
-88 -49 0
-89 -50 0
-90 -51 0
-91 -49 0
-92 -50 0
-93 -51 0
-100 -49 0
-101 -50 0
-102 -51 0
-121 -49 0
-122 -50 0
-123 -51 0
-103 -52 0
-104 -53 0
-105 -54 0
-124 -55 0
-125 -56 0
-126 -57 0
-103 -58 0
-104 -59 0
-105 -60 0
-112 -58 0
-113 -59 0
-114 -60 0
-136 -58 0
-137 -59 0
-138 -60 0
-148 -58 0
-149 -59 0
-150 -60 0
-103 -61 0
-104 -62 0
-105 -63 0
-106 -61 0
-107 -62 0
-108 -63 0
-130 -61 0
-131 -62 0
-132 -63 0
-118 -64 0
-119 -65 0
-120 -66 0
-106 -67 0
-107 -68 0
-108 -69 0
-124 -67 0
-125 -68 0
-126 -69 0
-115 -70 0
-116 -71 0
-117 -72 0
-130 -70 0
-131 -71 0
-132 -72 0
-133 -70 0
-134 -71 0
-135 -72 0
-136 -76 0
-137 -77 0
-138 -78 0
-142 -76 0
-143 -77 0
-144 -78 0
-112 -79 0
-113 -80 0
-114 -81 0
-115 -79 0
-116 -80 0
-117 -81 0
-127 -79 0
-128 -80 0
-129 -81 0
-106 -82 0
-107 -83 0
-108 -84 0
-115 -82 0
-116 -83 0
-117 -84 0
-145 -82 0
-146 -83 0
-147 -84 0
-148 -82 0
-149 -83 0
-150 -84 0
-118 -85 0
-119 -86 0
-120 -87 0
-121 -85 0
-122 -86 0
-123 -87 0
-136 -85 0
-137 -86 0
-138 -87 0
-139 -88 0
-140 -89 0
-141 -90 0
-145 -88 0
-146 -89 0
-147 -90 0
-103 -91 0
-104 -92 0
-105 -93 0
-148 -91 0
-149 -92 0
-150 -93 0
-115 -94 0
-116 -95 0
-117 -96 0
-130 -94 0
-131 -95 0
-132 -96 0
-118 -97 0
-119 -98 0
-120 -99 0
-148 -97 0
-149 -98 0
-150 -99 0
-121 -100 0
-122 -101 0
-123 -102 0
-139 -100 0
-140 -101 0
-141 -102 0
